p cnf 431 1538
c p weight -41 1 0
c p weight 41 -1 0
c p weight 45 6.12323399573676603586882014729198302312846062338790031898128063403419218957424163818359375E-17 0
c p weight -45 1 0
c p weight 46 1 0
c p weight -46 1 0
c p weight -43 1 0
c p weight 43 -1 0
c p weight -47 1 0
c p weight 47 -1 0
c p weight -49 1 0
c p weight 49 -1 0
c p weight -50 1 0
c p weight 50 -1 0
c p weight 54 6.12323399573676603586882014729198302312846062338790031898128063403419218957424163818359375E-17 0
c p weight -54 1 0
c p weight 55 1 0
c p weight -55 1 0
c p weight -52 1 0
c p weight 52 -1 0
c p weight -56 1 0
c p weight 56 -1 0
c p weight -58 1 0
c p weight 58 -1 0
c p weight -59 1 0
c p weight 59 -1 0
c p weight 63 6.12323399573676603586882014729198302312846062338790031898128063403419218957424163818359375E-17 0
c p weight -63 1 0
c p weight 64 1 0
c p weight -64 1 0
c p weight -61 1 0
c p weight 61 -1 0
c p weight -65 1 0
c p weight 65 -1 0
c p weight -67 1 0
c p weight 67 -1 0
c p weight 71 6.12323399573676603586882014729198302312846062338790031898128063403419218957424163818359375E-17 0
c p weight -71 1 0
c p weight 72 1 0
c p weight -72 1 0
c p weight -69 1 0
c p weight 69 -1 0
c p weight -73 1 0
c p weight 73 -1 0
c p weight -75 1 0
c p weight 75 -1 0
c p weight -76 1 0
c p weight 76 -1 0
c p weight 80 6.12323399573676603586882014729198302312846062338790031898128063403419218957424163818359375E-17 0
c p weight -80 1 0
c p weight 81 1 0
c p weight -81 1 0
c p weight -78 1 0
c p weight 78 -1 0
c p weight -82 1 0
c p weight 82 -1 0
c p weight -84 1 0
c p weight 84 -1 0
c p weight 88 6.12323399573676603586882014729198302312846062338790031898128063403419218957424163818359375E-17 0
c p weight -88 1 0
c p weight 89 1 0
c p weight -89 1 0
c p weight -86 1 0
c p weight 86 -1 0
c p weight -90 1 0
c p weight 90 -1 0
c p weight -92 1 0
c p weight 92 -1 0
c p weight -93 1 0
c p weight 93 -1 0
c p weight 97 6.12323399573676603586882014729198302312846062338790031898128063403419218957424163818359375E-17 0
c p weight -97 1 0
c p weight 98 1 0
c p weight -98 1 0
c p weight -95 1 0
c p weight 95 -1 0
c p weight -99 1 0
c p weight 99 -1 0
c p weight -101 1 0
c p weight 101 -1 0
c p weight -102 1 0
c p weight 102 -1 0
c p weight 106 6.12323399573676603586882014729198302312846062338790031898128063403419218957424163818359375E-17 0
c p weight -106 1 0
c p weight 107 1 0
c p weight -107 1 0
c p weight -104 1 0
c p weight 104 -1 0
c p weight -108 1 0
c p weight 108 -1 0
c p weight -110 1 0
c p weight 110 -1 0
c p weight 114 6.12323399573676603586882014729198302312846062338790031898128063403419218957424163818359375E-17 0
c p weight -114 1 0
c p weight 115 1 0
c p weight -115 1 0
c p weight -112 1 0
c p weight 112 -1 0
c p weight -116 1 0
c p weight 116 -1 0
c p weight -118 1 0
c p weight 118 -1 0
c p weight -119 1 0
c p weight 119 -1 0
c p weight 123 6.12323399573676603586882014729198302312846062338790031898128063403419218957424163818359375E-17 0
c p weight -123 1 0
c p weight 124 1 0
c p weight -124 1 0
c p weight -121 1 0
c p weight 121 -1 0
c p weight -125 1 0
c p weight 125 -1 0
c p weight -127 1 0
c p weight 127 -1 0
c p weight -128 1 0
c p weight 128 -1 0
c p weight 132 6.12323399573676603586882014729198302312846062338790031898128063403419218957424163818359375E-17 0
c p weight -132 1 0
c p weight 133 1 0
c p weight -133 1 0
c p weight -130 1 0
c p weight 130 -1 0
c p weight -134 1 0
c p weight 134 -1 0
c p weight -136 1 0
c p weight 136 -1 0
c p weight 140 6.12323399573676603586882014729198302312846062338790031898128063403419218957424163818359375E-17 0
c p weight -140 1 0
c p weight 141 1 0
c p weight -141 1 0
c p weight -138 1 0
c p weight 138 -1 0
c p weight -142 1 0
c p weight 142 -1 0
c p weight -144 1 0
c p weight 144 -1 0
c p weight -145 1 0
c p weight 145 -1 0
c p weight 149 6.12323399573676603586882014729198302312846062338790031898128063403419218957424163818359375E-17 0
c p weight -149 1 0
c p weight 150 1 0
c p weight -150 1 0
c p weight -147 1 0
c p weight 147 -1 0
c p weight -151 1 0
c p weight 151 -1 0
c p weight -153 1 0
c p weight 153 -1 0
c p weight -154 1 0
c p weight 154 -1 0
c p weight 158 6.12323399573676603586882014729198302312846062338790031898128063403419218957424163818359375E-17 0
c p weight -158 1 0
c p weight 159 1 0
c p weight -159 1 0
c p weight -156 1 0
c p weight 156 -1 0
c p weight -160 1 0
c p weight 160 -1 0
c p weight -162 1 0
c p weight 162 -1 0
c p weight 166 6.12323399573676603586882014729198302312846062338790031898128063403419218957424163818359375E-17 0
c p weight -166 1 0
c p weight 167 1 0
c p weight -167 1 0
c p weight -164 1 0
c p weight 164 -1 0
c p weight -168 1 0
c p weight 168 -1 0
c p weight -170 1 0
c p weight 170 -1 0
c p weight 174 6.12323399573676603586882014729198302312846062338790031898128063403419218957424163818359375E-17 0
c p weight -174 1 0
c p weight 175 1 0
c p weight -175 1 0
c p weight -172 1 0
c p weight 172 -1 0
c p weight -176 1 0
c p weight 176 -1 0
c p weight -178 1 0
c p weight 178 -1 0
c p weight -179 1 0
c p weight 179 -1 0
c p weight 183 6.12323399573676603586882014729198302312846062338790031898128063403419218957424163818359375E-17 0
c p weight -183 1 0
c p weight 184 1 0
c p weight -184 1 0
c p weight -181 1 0
c p weight 181 -1 0
c p weight -185 1 0
c p weight 185 -1 0
c p weight -187 1 0
c p weight 187 -1 0
c p weight 191 6.12323399573676603586882014729198302312846062338790031898128063403419218957424163818359375E-17 0
c p weight -191 1 0
c p weight 192 1 0
c p weight -192 1 0
c p weight -189 1 0
c p weight 189 -1 0
c p weight -193 1 0
c p weight 193 -1 0
c p weight -195 1 0
c p weight 195 -1 0
c p weight 199 6.12323399573676603586882014729198302312846062338790031898128063403419218957424163818359375E-17 0
c p weight -199 1 0
c p weight 200 1 0
c p weight -200 1 0
c p weight -197 1 0
c p weight 197 -1 0
c p weight -201 1 0
c p weight 201 -1 0
c p weight -203 1 0
c p weight 203 -1 0
c p weight -204 1 0
c p weight 204 -1 0
c p weight 208 6.12323399573676603586882014729198302312846062338790031898128063403419218957424163818359375E-17 0
c p weight -208 1 0
c p weight 209 1 0
c p weight -209 1 0
c p weight -206 1 0
c p weight 206 -1 0
c p weight -210 1 0
c p weight 210 -1 0
c p weight -212 1 0
c p weight 212 -1 0
c p weight -215 1 0
c p weight 215 -1 0
c p weight -216 1 0
c p weight 216 -1 0
c p weight 220 6.12323399573676603586882014729198302312846062338790031898128063403419218957424163818359375E-17 0
c p weight -220 1 0
c p weight 221 1 0
c p weight -221 1 0
c p weight -218 1 0
c p weight 218 -1 0
c p weight -222 1 0
c p weight 222 -1 0
c p weight -224 1 0
c p weight 224 -1 0
c p weight -227 1 0
c p weight 227 -1 0
c p weight -228 1 0
c p weight 228 -1 0
c p weight 232 6.12323399573676603586882014729198302312846062338790031898128063403419218957424163818359375E-17 0
c p weight -232 1 0
c p weight 233 1 0
c p weight -233 1 0
c p weight -230 1 0
c p weight 230 -1 0
c p weight -234 1 0
c p weight 234 -1 0
c p weight -236 1 0
c p weight 236 -1 0
c p weight -239 1 0
c p weight 239 -1 0
c p weight 243 6.12323399573676603586882014729198302312846062338790031898128063403419218957424163818359375E-17 0
c p weight -243 1 0
c p weight 244 1 0
c p weight -244 1 0
c p weight -241 1 0
c p weight 241 -1 0
c p weight -245 1 0
c p weight 245 -1 0
c p weight -247 1 0
c p weight 247 -1 0
c p weight -250 1 0
c p weight 250 -1 0
c p weight -251 1 0
c p weight 251 -1 0
c p weight 255 6.12323399573676603586882014729198302312846062338790031898128063403419218957424163818359375E-17 0
c p weight -255 1 0
c p weight 256 1 0
c p weight -256 1 0
c p weight -253 1 0
c p weight 253 -1 0
c p weight -257 1 0
c p weight 257 -1 0
c p weight -259 1 0
c p weight 259 -1 0
c p weight -262 1 0
c p weight 262 -1 0
c p weight 266 6.12323399573676603586882014729198302312846062338790031898128063403419218957424163818359375E-17 0
c p weight -266 1 0
c p weight 267 1 0
c p weight -267 1 0
c p weight -264 1 0
c p weight 264 -1 0
c p weight -268 1 0
c p weight 268 -1 0
c p weight -270 1 0
c p weight 270 -1 0
c p weight -273 1 0
c p weight 273 -1 0
c p weight -274 1 0
c p weight 274 -1 0
c p weight 278 6.12323399573676603586882014729198302312846062338790031898128063403419218957424163818359375E-17 0
c p weight -278 1 0
c p weight 279 1 0
c p weight -279 1 0
c p weight -276 1 0
c p weight 276 -1 0
c p weight -280 1 0
c p weight 280 -1 0
c p weight -282 1 0
c p weight 282 -1 0
c p weight -285 1 0
c p weight 285 -1 0
c p weight -286 1 0
c p weight 286 -1 0
c p weight 290 6.12323399573676603586882014729198302312846062338790031898128063403419218957424163818359375E-17 0
c p weight -290 1 0
c p weight 291 1 0
c p weight -291 1 0
c p weight -288 1 0
c p weight 288 -1 0
c p weight -292 1 0
c p weight 292 -1 0
c p weight -294 1 0
c p weight 294 -1 0
c p weight -297 1 0
c p weight 297 -1 0
c p weight 301 6.12323399573676603586882014729198302312846062338790031898128063403419218957424163818359375E-17 0
c p weight -301 1 0
c p weight 302 1 0
c p weight -302 1 0
c p weight -299 1 0
c p weight 299 -1 0
c p weight -303 1 0
c p weight 303 -1 0
c p weight -305 1 0
c p weight 305 -1 0
c p weight -308 1 0
c p weight 308 -1 0
c p weight -309 1 0
c p weight 309 -1 0
c p weight 313 6.12323399573676603586882014729198302312846062338790031898128063403419218957424163818359375E-17 0
c p weight -313 1 0
c p weight 314 1 0
c p weight -314 1 0
c p weight -311 1 0
c p weight 311 -1 0
c p weight -315 1 0
c p weight 315 -1 0
c p weight -317 1 0
c p weight 317 -1 0
c p weight -320 1 0
c p weight 320 -1 0
c p weight -321 1 0
c p weight 321 -1 0
c p weight 325 6.12323399573676603586882014729198302312846062338790031898128063403419218957424163818359375E-17 0
c p weight -325 1 0
c p weight 326 1 0
c p weight -326 1 0
c p weight -323 1 0
c p weight 323 -1 0
c p weight -327 1 0
c p weight 327 -1 0
c p weight -329 1 0
c p weight 329 -1 0
c p weight -332 1 0
c p weight 332 -1 0
c p weight 336 6.12323399573676603586882014729198302312846062338790031898128063403419218957424163818359375E-17 0
c p weight -336 1 0
c p weight 337 1 0
c p weight -337 1 0
c p weight -334 1 0
c p weight 334 -1 0
c p weight -338 1 0
c p weight 338 -1 0
c p weight -340 1 0
c p weight 340 -1 0
c p weight -343 1 0
c p weight 343 -1 0
c p weight -344 1 0
c p weight 344 -1 0
c p weight 348 6.12323399573676603586882014729198302312846062338790031898128063403419218957424163818359375E-17 0
c p weight -348 1 0
c p weight 349 1 0
c p weight -349 1 0
c p weight -346 1 0
c p weight 346 -1 0
c p weight -350 1 0
c p weight 350 -1 0
c p weight -352 1 0
c p weight 352 -1 0
c p weight -355 1 0
c p weight 355 -1 0
c p weight -356 1 0
c p weight 356 -1 0
c p weight 360 6.12323399573676603586882014729198302312846062338790031898128063403419218957424163818359375E-17 0
c p weight -360 1 0
c p weight 361 1 0
c p weight -361 1 0
c p weight -358 1 0
c p weight 358 -1 0
c p weight -362 1 0
c p weight 362 -1 0
c p weight -364 1 0
c p weight 364 -1 0
c p weight -367 1 0
c p weight 367 -1 0
c p weight 371 6.12323399573676603586882014729198302312846062338790031898128063403419218957424163818359375E-17 0
c p weight -371 1 0
c p weight 372 1 0
c p weight -372 1 0
c p weight -369 1 0
c p weight 369 -1 0
c p weight -373 1 0
c p weight 373 -1 0
c p weight -375 1 0
c p weight 375 -1 0
c p weight -378 1 0
c p weight 378 -1 0
c p weight 382 6.12323399573676603586882014729198302312846062338790031898128063403419218957424163818359375E-17 0
c p weight -382 1 0
c p weight 383 1 0
c p weight -383 1 0
c p weight -380 1 0
c p weight 380 -1 0
c p weight -384 1 0
c p weight 384 -1 0
c p weight -386 1 0
c p weight 386 -1 0
c p weight -389 1 0
c p weight 389 -1 0
c p weight -390 1 0
c p weight 390 -1 0
c p weight 394 6.12323399573676603586882014729198302312846062338790031898128063403419218957424163818359375E-17 0
c p weight -394 1 0
c p weight 395 1 0
c p weight -395 1 0
c p weight -392 1 0
c p weight 392 -1 0
c p weight -396 1 0
c p weight 396 -1 0
c p weight -398 1 0
c p weight 398 -1 0
c p weight -401 1 0
c p weight 401 -1 0
c p weight 405 6.12323399573676603586882014729198302312846062338790031898128063403419218957424163818359375E-17 0
c p weight -405 1 0
c p weight 406 1 0
c p weight -406 1 0
c p weight -403 1 0
c p weight 403 -1 0
c p weight -407 1 0
c p weight 407 -1 0
c p weight -409 1 0
c p weight 409 -1 0
c p weight -412 1 0
c p weight 412 -1 0
c p weight 416 6.12323399573676603586882014729198302312846062338790031898128063403419218957424163818359375E-17 0
c p weight -416 1 0
c p weight 417 1 0
c p weight -417 1 0
c p weight -414 1 0
c p weight 414 -1 0
c p weight -418 1 0
c p weight 418 -1 0
c p weight -420 1 0
c p weight 420 -1 0
c p weight -423 1 0
c p weight 423 -1 0
c p weight 427 6.12323399573676603586882014729198302312846062338790031898128063403419218957424163818359375E-17 0
c p weight -427 1 0
c p weight 428 1 0
c p weight -428 1 0
c p weight -425 1 0
c p weight 425 -1 0
c p weight -429 1 0
c p weight 429 -1 0
c p weight 431 0.5 0
c p weight -431 1 0
431 0
-39 0
-37 0
-35 0
-33 0
-31 0
-29 0
-27 0
-25 0
-23 0
-21 0
-19 0
-17 0
-15 0
-13 0
-11 0
-9 0
-7 0
-5 0
-3 0
-1 0
-41 1 0
-41 2 0
41 -1 -2 0
42 1 -2 0
42 -1 2 0
-42 1 2 0
-42 -1 -2 0
-43 44 0
-43 42 0
-43 -1 0
43 -44 1 -42 0
44 -1 42 0
-44 1 42 0
-45 42 0
44 -45 -1 0
-44 -45 1 0
44 45 1 -42 0
-44 45 -1 -42 0
-46 42 0
44 -46 1 0
-44 -46 -1 0
44 46 -1 -42 0
-44 46 1 -42 0
-47 44 0
-47 42 0
47 -44 -42 0
48 44 -42 0
48 -44 42 0
-48 44 42 0
-48 -44 -42 0
49 -48 0
-49 48 0
-50 3 0
-50 4 0
50 -3 -4 0
51 3 -4 0
51 -3 4 0
-51 3 4 0
-51 -3 -4 0
-52 53 0
-52 51 0
-52 -3 0
52 -53 3 -51 0
53 -3 51 0
-53 3 51 0
-54 51 0
53 -54 -3 0
-53 -54 3 0
53 54 3 -51 0
-53 54 -3 -51 0
-55 51 0
53 -55 3 0
-53 -55 -3 0
53 55 -3 -51 0
-53 55 3 -51 0
-56 53 0
-56 51 0
56 -53 -51 0
57 53 -51 0
57 -53 51 0
-57 53 51 0
-57 -53 -51 0
58 -57 0
-58 57 0
-59 5 0
-59 6 0
59 -5 -6 0
60 5 -6 0
60 -5 6 0
-60 5 6 0
-60 -5 -6 0
-61 62 0
-61 60 0
-61 -5 0
61 -62 5 -60 0
62 -5 60 0
-62 5 60 0
-63 60 0
62 -63 -5 0
-62 -63 5 0
62 63 5 -60 0
-62 63 -5 -60 0
-64 60 0
62 -64 5 0
-62 -64 -5 0
62 64 -5 -60 0
-62 64 5 -60 0
-65 62 0
-65 60 0
65 -62 -60 0
66 62 -60 0
66 -62 60 0
-66 62 60 0
-66 -62 -60 0
-67 7 0
-67 8 0
67 -7 -8 0
68 7 -8 0
68 -7 8 0
-68 7 8 0
-68 -7 -8 0
-69 70 0
-69 68 0
-69 -7 0
69 -70 7 -68 0
70 -7 68 0
-70 7 68 0
-71 68 0
70 -71 -7 0
-70 -71 7 0
70 71 7 -68 0
-70 71 -7 -68 0
-72 68 0
70 -72 7 0
-70 -72 -7 0
70 72 -7 -68 0
-70 72 7 -68 0
-73 70 0
-73 68 0
73 -70 -68 0
74 70 -68 0
74 -70 68 0
-74 70 68 0
-74 -70 -68 0
75 -74 0
-75 74 0
-76 9 0
-76 10 0
76 -9 -10 0
77 9 -10 0
77 -9 10 0
-77 9 10 0
-77 -9 -10 0
-78 79 0
-78 77 0
-78 -9 0
78 -79 9 -77 0
79 -9 77 0
-79 9 77 0
-80 77 0
79 -80 -9 0
-79 -80 9 0
79 80 9 -77 0
-79 80 -9 -77 0
-81 77 0
79 -81 9 0
-79 -81 -9 0
79 81 -9 -77 0
-79 81 9 -77 0
-82 79 0
-82 77 0
82 -79 -77 0
83 79 -77 0
83 -79 77 0
-83 79 77 0
-83 -79 -77 0
-84 11 0
-84 12 0
84 -11 -12 0
85 11 -12 0
85 -11 12 0
-85 11 12 0
-85 -11 -12 0
-86 87 0
-86 85 0
-86 -11 0
86 -87 11 -85 0
87 -11 85 0
-87 11 85 0
-88 85 0
87 -88 -11 0
-87 -88 11 0
87 88 11 -85 0
-87 88 -11 -85 0
-89 85 0
87 -89 11 0
-87 -89 -11 0
87 89 -11 -85 0
-87 89 11 -85 0
-90 87 0
-90 85 0
90 -87 -85 0
91 87 -85 0
91 -87 85 0
-91 87 85 0
-91 -87 -85 0
92 -91 0
-92 91 0
-93 13 0
-93 14 0
93 -13 -14 0
94 13 -14 0
94 -13 14 0
-94 13 14 0
-94 -13 -14 0
-95 96 0
-95 94 0
-95 -13 0
95 -96 13 -94 0
96 -13 94 0
-96 13 94 0
-97 94 0
96 -97 -13 0
-96 -97 13 0
96 97 13 -94 0
-96 97 -13 -94 0
-98 94 0
96 -98 13 0
-96 -98 -13 0
96 98 -13 -94 0
-96 98 13 -94 0
-99 96 0
-99 94 0
99 -96 -94 0
100 96 -94 0
100 -96 94 0
-100 96 94 0
-100 -96 -94 0
101 -100 0
-101 100 0
-102 15 0
-102 16 0
102 -15 -16 0
103 15 -16 0
103 -15 16 0
-103 15 16 0
-103 -15 -16 0
-104 105 0
-104 103 0
-104 -15 0
104 -105 15 -103 0
105 -15 103 0
-105 15 103 0
-106 103 0
105 -106 -15 0
-105 -106 15 0
105 106 15 -103 0
-105 106 -15 -103 0
-107 103 0
105 -107 15 0
-105 -107 -15 0
105 107 -15 -103 0
-105 107 15 -103 0
-108 105 0
-108 103 0
108 -105 -103 0
109 105 -103 0
109 -105 103 0
-109 105 103 0
-109 -105 -103 0
-110 17 0
-110 18 0
110 -17 -18 0
111 17 -18 0
111 -17 18 0
-111 17 18 0
-111 -17 -18 0
-112 113 0
-112 111 0
-112 -17 0
112 -113 17 -111 0
113 -17 111 0
-113 17 111 0
-114 111 0
113 -114 -17 0
-113 -114 17 0
113 114 17 -111 0
-113 114 -17 -111 0
-115 111 0
113 -115 17 0
-113 -115 -17 0
113 115 -17 -111 0
-113 115 17 -111 0
-116 113 0
-116 111 0
116 -113 -111 0
117 113 -111 0
117 -113 111 0
-117 113 111 0
-117 -113 -111 0
118 -117 0
-118 117 0
-119 19 0
-119 20 0
119 -19 -20 0
120 19 -20 0
120 -19 20 0
-120 19 20 0
-120 -19 -20 0
-121 122 0
-121 120 0
-121 -19 0
121 -122 19 -120 0
122 -19 120 0
-122 19 120 0
-123 120 0
122 -123 -19 0
-122 -123 19 0
122 123 19 -120 0
-122 123 -19 -120 0
-124 120 0
122 -124 19 0
-122 -124 -19 0
122 124 -19 -120 0
-122 124 19 -120 0
-125 122 0
-125 120 0
125 -122 -120 0
126 122 -120 0
126 -122 120 0
-126 122 120 0
-126 -122 -120 0
127 -126 0
-127 126 0
-128 21 0
-128 22 0
128 -21 -22 0
129 21 -22 0
129 -21 22 0
-129 21 22 0
-129 -21 -22 0
-130 131 0
-130 129 0
-130 -21 0
130 -131 21 -129 0
131 -21 129 0
-131 21 129 0
-132 129 0
131 -132 -21 0
-131 -132 21 0
131 132 21 -129 0
-131 132 -21 -129 0
-133 129 0
131 -133 21 0
-131 -133 -21 0
131 133 -21 -129 0
-131 133 21 -129 0
-134 131 0
-134 129 0
134 -131 -129 0
135 131 -129 0
135 -131 129 0
-135 131 129 0
-135 -131 -129 0
-136 23 0
-136 24 0
136 -23 -24 0
137 23 -24 0
137 -23 24 0
-137 23 24 0
-137 -23 -24 0
-138 139 0
-138 137 0
-138 -23 0
138 -139 23 -137 0
139 -23 137 0
-139 23 137 0
-140 137 0
139 -140 -23 0
-139 -140 23 0
139 140 23 -137 0
-139 140 -23 -137 0
-141 137 0
139 -141 23 0
-139 -141 -23 0
139 141 -23 -137 0
-139 141 23 -137 0
-142 139 0
-142 137 0
142 -139 -137 0
143 139 -137 0
143 -139 137 0
-143 139 137 0
-143 -139 -137 0
144 -143 0
-144 143 0
-145 25 0
-145 26 0
145 -25 -26 0
146 25 -26 0
146 -25 26 0
-146 25 26 0
-146 -25 -26 0
-147 148 0
-147 146 0
-147 -25 0
147 -148 25 -146 0
148 -25 146 0
-148 25 146 0
-149 146 0
148 -149 -25 0
-148 -149 25 0
148 149 25 -146 0
-148 149 -25 -146 0
-150 146 0
148 -150 25 0
-148 -150 -25 0
148 150 -25 -146 0
-148 150 25 -146 0
-151 148 0
-151 146 0
151 -148 -146 0
152 148 -146 0
152 -148 146 0
-152 148 146 0
-152 -148 -146 0
153 -152 0
-153 152 0
-154 27 0
-154 28 0
154 -27 -28 0
155 27 -28 0
155 -27 28 0
-155 27 28 0
-155 -27 -28 0
-156 157 0
-156 155 0
-156 -27 0
156 -157 27 -155 0
157 -27 155 0
-157 27 155 0
-158 155 0
157 -158 -27 0
-157 -158 27 0
157 158 27 -155 0
-157 158 -27 -155 0
-159 155 0
157 -159 27 0
-157 -159 -27 0
157 159 -27 -155 0
-157 159 27 -155 0
-160 157 0
-160 155 0
160 -157 -155 0
161 157 -155 0
161 -157 155 0
-161 157 155 0
-161 -157 -155 0
-162 29 0
-162 30 0
162 -29 -30 0
163 29 -30 0
163 -29 30 0
-163 29 30 0
-163 -29 -30 0
-164 165 0
-164 163 0
-164 -29 0
164 -165 29 -163 0
165 -29 163 0
-165 29 163 0
-166 163 0
165 -166 -29 0
-165 -166 29 0
165 166 29 -163 0
-165 166 -29 -163 0
-167 163 0
165 -167 29 0
-165 -167 -29 0
165 167 -29 -163 0
-165 167 29 -163 0
-168 165 0
-168 163 0
168 -165 -163 0
169 165 -163 0
169 -165 163 0
-169 165 163 0
-169 -165 -163 0
-170 31 0
-170 32 0
170 -31 -32 0
171 31 -32 0
171 -31 32 0
-171 31 32 0
-171 -31 -32 0
-172 173 0
-172 171 0
-172 -31 0
172 -173 31 -171 0
173 -31 171 0
-173 31 171 0
-174 171 0
173 -174 -31 0
-173 -174 31 0
173 174 31 -171 0
-173 174 -31 -171 0
-175 171 0
173 -175 31 0
-173 -175 -31 0
173 175 -31 -171 0
-173 175 31 -171 0
-176 173 0
-176 171 0
176 -173 -171 0
177 173 -171 0
177 -173 171 0
-177 173 171 0
-177 -173 -171 0
178 -177 0
-178 177 0
-179 33 0
-179 34 0
179 -33 -34 0
180 33 -34 0
180 -33 34 0
-180 33 34 0
-180 -33 -34 0
-181 182 0
-181 180 0
-181 -33 0
181 -182 33 -180 0
182 -33 180 0
-182 33 180 0
-183 180 0
182 -183 -33 0
-182 -183 33 0
182 183 33 -180 0
-182 183 -33 -180 0
-184 180 0
182 -184 33 0
-182 -184 -33 0
182 184 -33 -180 0
-182 184 33 -180 0
-185 182 0
-185 180 0
185 -182 -180 0
186 182 -180 0
186 -182 180 0
-186 182 180 0
-186 -182 -180 0
-187 35 0
-187 36 0
187 -35 -36 0
188 35 -36 0
188 -35 36 0
-188 35 36 0
-188 -35 -36 0
-189 190 0
-189 188 0
-189 -35 0
189 -190 35 -188 0
190 -35 188 0
-190 35 188 0
-191 188 0
190 -191 -35 0
-190 -191 35 0
190 191 35 -188 0
-190 191 -35 -188 0
-192 188 0
190 -192 35 0
-190 -192 -35 0
190 192 -35 -188 0
-190 192 35 -188 0
-193 190 0
-193 188 0
193 -190 -188 0
194 190 -188 0
194 -190 188 0
-194 190 188 0
-194 -190 -188 0
-195 37 0
-195 38 0
195 -37 -38 0
196 37 -38 0
196 -37 38 0
-196 37 38 0
-196 -37 -38 0
-197 198 0
-197 196 0
-197 -37 0
197 -198 37 -196 0
198 -37 196 0
-198 37 196 0
-199 196 0
198 -199 -37 0
-198 -199 37 0
198 199 37 -196 0
-198 199 -37 -196 0
-200 196 0
198 -200 37 0
-198 -200 -37 0
198 200 -37 -196 0
-198 200 37 -196 0
-201 198 0
-201 196 0
201 -198 -196 0
202 198 -196 0
202 -198 196 0
-202 198 196 0
-202 -198 -196 0
203 -40 0
-203 40 0
-204 39 0
-204 40 0
204 -39 -40 0
205 39 -40 0
205 -39 40 0
-205 39 40 0
-205 -39 -40 0
-206 207 0
-206 205 0
-206 -39 0
206 -207 39 -205 0
207 -39 205 0
-207 39 205 0
-208 205 0
207 -208 -39 0
-207 -208 39 0
207 208 39 -205 0
-207 208 -39 -205 0
-209 205 0
207 -209 39 0
-207 -209 -39 0
207 209 -39 -205 0
-207 209 39 -205 0
-210 207 0
-210 205 0
210 -207 -205 0
211 207 -205 0
211 -207 205 0
-211 207 205 0
-211 -207 -205 0
-212 44 0
-212 211 0
-212 207 -48 0
-212 -207 48 0
212 -44 207 48 -211 0
212 -44 -207 -48 -211 0
214 44 -207 0
214 -44 207 0
-214 44 207 0
-214 -44 -207 0
213 48 -211 0
213 -48 211 0
-213 48 211 0
-213 -48 -211 0
215 -213 0
-215 213 0
-216 44 0
-216 213 0
216 -44 -213 0
217 44 -213 0
217 -44 213 0
-217 44 213 0
-217 -44 -213 0
-218 219 0
-218 217 0
-218 -44 0
218 -219 44 -217 0
219 -44 217 0
-219 44 217 0
-220 217 0
219 -220 -44 0
-219 -220 44 0
219 220 44 -217 0
-219 220 -44 -217 0
-221 217 0
219 -221 44 0
-219 -221 -44 0
219 221 -44 -217 0
-219 221 44 -217 0
-222 219 0
-222 217 0
222 -219 -217 0
223 219 -217 0
223 -219 217 0
-223 219 217 0
-223 -219 -217 0
-224 53 0
-224 211 0
-224 214 -57 0
-224 -214 57 0
224 -53 214 57 -211 0
224 -53 -214 -57 -211 0
226 53 -214 0
226 -53 214 0
-226 53 214 0
-226 -53 -214 0
225 57 -211 0
225 -57 211 0
-225 57 211 0
-225 -57 -211 0
227 -225 0
-227 225 0
-228 53 0
-228 225 0
228 -53 -225 0
229 53 -225 0
229 -53 225 0
-229 53 225 0
-229 -53 -225 0
-230 231 0
-230 229 0
-230 -53 0
230 -231 53 -229 0
231 -53 229 0
-231 53 229 0
-232 229 0
231 -232 -53 0
-231 -232 53 0
231 232 53 -229 0
-231 232 -53 -229 0
-233 229 0
231 -233 53 0
-231 -233 -53 0
231 233 -53 -229 0
-231 233 53 -229 0
-234 231 0
-234 229 0
234 -231 -229 0
235 231 -229 0
235 -231 229 0
-235 231 229 0
-235 -231 -229 0
-236 62 0
-236 211 0
-236 226 -66 0
-236 -226 66 0
236 -62 226 66 -211 0
236 -62 -226 -66 -211 0
238 62 -226 0
238 -62 226 0
-238 62 226 0
-238 -62 -226 0
237 66 -211 0
237 -66 211 0
-237 66 211 0
-237 -66 -211 0
-239 62 0
-239 237 0
239 -62 -237 0
240 62 -237 0
240 -62 237 0
-240 62 237 0
-240 -62 -237 0
-241 242 0
-241 240 0
-241 -62 0
241 -242 62 -240 0
242 -62 240 0
-242 62 240 0
-243 240 0
242 -243 -62 0
-242 -243 62 0
242 243 62 -240 0
-242 243 -62 -240 0
-244 240 0
242 -244 62 0
-242 -244 -62 0
242 244 -62 -240 0
-242 244 62 -240 0
-245 242 0
-245 240 0
245 -242 -240 0
246 242 -240 0
246 -242 240 0
-246 242 240 0
-246 -242 -240 0
-247 70 0
-247 211 0
-247 238 -74 0
-247 -238 74 0
247 -70 238 74 -211 0
247 -70 -238 -74 -211 0
249 70 -238 0
249 -70 238 0
-249 70 238 0
-249 -70 -238 0
248 74 -211 0
248 -74 211 0
-248 74 211 0
-248 -74 -211 0
250 -248 0
-250 248 0
-251 70 0
-251 248 0
251 -70 -248 0
252 70 -248 0
252 -70 248 0
-252 70 248 0
-252 -70 -248 0
-253 254 0
-253 252 0
-253 -70 0
253 -254 70 -252 0
254 -70 252 0
-254 70 252 0
-255 252 0
254 -255 -70 0
-254 -255 70 0
254 255 70 -252 0
-254 255 -70 -252 0
-256 252 0
254 -256 70 0
-254 -256 -70 0
254 256 -70 -252 0
-254 256 70 -252 0
-257 254 0
-257 252 0
257 -254 -252 0
258 254 -252 0
258 -254 252 0
-258 254 252 0
-258 -254 -252 0
-259 79 0
-259 211 0
-259 249 -83 0
-259 -249 83 0
259 -79 249 83 -211 0
259 -79 -249 -83 -211 0
261 79 -249 0
261 -79 249 0
-261 79 249 0
-261 -79 -249 0
260 83 -211 0
260 -83 211 0
-260 83 211 0
-260 -83 -211 0
-262 79 0
-262 260 0
262 -79 -260 0
263 79 -260 0
263 -79 260 0
-263 79 260 0
-263 -79 -260 0
-264 265 0
-264 263 0
-264 -79 0
264 -265 79 -263 0
265 -79 263 0
-265 79 263 0
-266 263 0
265 -266 -79 0
-265 -266 79 0
265 266 79 -263 0
-265 266 -79 -263 0
-267 263 0
265 -267 79 0
-265 -267 -79 0
265 267 -79 -263 0
-265 267 79 -263 0
-268 265 0
-268 263 0
268 -265 -263 0
269 265 -263 0
269 -265 263 0
-269 265 263 0
-269 -265 -263 0
-270 87 0
-270 211 0
-270 261 -91 0
-270 -261 91 0
270 -87 261 91 -211 0
270 -87 -261 -91 -211 0
272 87 -261 0
272 -87 261 0
-272 87 261 0
-272 -87 -261 0
271 91 -211 0
271 -91 211 0
-271 91 211 0
-271 -91 -211 0
273 -271 0
-273 271 0
-274 87 0
-274 271 0
274 -87 -271 0
275 87 -271 0
275 -87 271 0
-275 87 271 0
-275 -87 -271 0
-276 277 0
-276 275 0
-276 -87 0
276 -277 87 -275 0
277 -87 275 0
-277 87 275 0
-278 275 0
277 -278 -87 0
-277 -278 87 0
277 278 87 -275 0
-277 278 -87 -275 0
-279 275 0
277 -279 87 0
-277 -279 -87 0
277 279 -87 -275 0
-277 279 87 -275 0
-280 277 0
-280 275 0
280 -277 -275 0
281 277 -275 0
281 -277 275 0
-281 277 275 0
-281 -277 -275 0
-282 96 0
-282 211 0
-282 272 -100 0
-282 -272 100 0
282 -96 272 100 -211 0
282 -96 -272 -100 -211 0
284 96 -272 0
284 -96 272 0
-284 96 272 0
-284 -96 -272 0
283 100 -211 0
283 -100 211 0
-283 100 211 0
-283 -100 -211 0
285 -283 0
-285 283 0
-286 96 0
-286 283 0
286 -96 -283 0
287 96 -283 0
287 -96 283 0
-287 96 283 0
-287 -96 -283 0
-288 289 0
-288 287 0
-288 -96 0
288 -289 96 -287 0
289 -96 287 0
-289 96 287 0
-290 287 0
289 -290 -96 0
-289 -290 96 0
289 290 96 -287 0
-289 290 -96 -287 0
-291 287 0
289 -291 96 0
-289 -291 -96 0
289 291 -96 -287 0
-289 291 96 -287 0
-292 289 0
-292 287 0
292 -289 -287 0
293 289 -287 0
293 -289 287 0
-293 289 287 0
-293 -289 -287 0
-294 105 0
-294 211 0
-294 284 -109 0
-294 -284 109 0
294 -105 284 109 -211 0
294 -105 -284 -109 -211 0
296 105 -284 0
296 -105 284 0
-296 105 284 0
-296 -105 -284 0
295 109 -211 0
295 -109 211 0
-295 109 211 0
-295 -109 -211 0
-297 105 0
-297 295 0
297 -105 -295 0
298 105 -295 0
298 -105 295 0
-298 105 295 0
-298 -105 -295 0
-299 300 0
-299 298 0
-299 -105 0
299 -300 105 -298 0
300 -105 298 0
-300 105 298 0
-301 298 0
300 -301 -105 0
-300 -301 105 0
300 301 105 -298 0
-300 301 -105 -298 0
-302 298 0
300 -302 105 0
-300 -302 -105 0
300 302 -105 -298 0
-300 302 105 -298 0
-303 300 0
-303 298 0
303 -300 -298 0
304 300 -298 0
304 -300 298 0
-304 300 298 0
-304 -300 -298 0
-305 113 0
-305 211 0
-305 296 -117 0
-305 -296 117 0
305 -113 296 117 -211 0
305 -113 -296 -117 -211 0
307 113 -296 0
307 -113 296 0
-307 113 296 0
-307 -113 -296 0
306 117 -211 0
306 -117 211 0
-306 117 211 0
-306 -117 -211 0
308 -306 0
-308 306 0
-309 113 0
-309 306 0
309 -113 -306 0
310 113 -306 0
310 -113 306 0
-310 113 306 0
-310 -113 -306 0
-311 312 0
-311 310 0
-311 -113 0
311 -312 113 -310 0
312 -113 310 0
-312 113 310 0
-313 310 0
312 -313 -113 0
-312 -313 113 0
312 313 113 -310 0
-312 313 -113 -310 0
-314 310 0
312 -314 113 0
-312 -314 -113 0
312 314 -113 -310 0
-312 314 113 -310 0
-315 312 0
-315 310 0
315 -312 -310 0
316 312 -310 0
316 -312 310 0
-316 312 310 0
-316 -312 -310 0
-317 122 0
-317 211 0
-317 307 -126 0
-317 -307 126 0
317 -122 307 126 -211 0
317 -122 -307 -126 -211 0
319 122 -307 0
319 -122 307 0
-319 122 307 0
-319 -122 -307 0
318 126 -211 0
318 -126 211 0
-318 126 211 0
-318 -126 -211 0
320 -318 0
-320 318 0
-321 122 0
-321 318 0
321 -122 -318 0
322 122 -318 0
322 -122 318 0
-322 122 318 0
-322 -122 -318 0
-323 324 0
-323 322 0
-323 -122 0
323 -324 122 -322 0
324 -122 322 0
-324 122 322 0
-325 322 0
324 -325 -122 0
-324 -325 122 0
324 325 122 -322 0
-324 325 -122 -322 0
-326 322 0
324 -326 122 0
-324 -326 -122 0
324 326 -122 -322 0
-324 326 122 -322 0
-327 324 0
-327 322 0
327 -324 -322 0
328 324 -322 0
328 -324 322 0
-328 324 322 0
-328 -324 -322 0
-329 131 0
-329 211 0
-329 319 -135 0
-329 -319 135 0
329 -131 319 135 -211 0
329 -131 -319 -135 -211 0
331 131 -319 0
331 -131 319 0
-331 131 319 0
-331 -131 -319 0
330 135 -211 0
330 -135 211 0
-330 135 211 0
-330 -135 -211 0
-332 131 0
-332 330 0
332 -131 -330 0
333 131 -330 0
333 -131 330 0
-333 131 330 0
-333 -131 -330 0
-334 335 0
-334 333 0
-334 -131 0
334 -335 131 -333 0
335 -131 333 0
-335 131 333 0
-336 333 0
335 -336 -131 0
-335 -336 131 0
335 336 131 -333 0
-335 336 -131 -333 0
-337 333 0
335 -337 131 0
-335 -337 -131 0
335 337 -131 -333 0
-335 337 131 -333 0
-338 335 0
-338 333 0
338 -335 -333 0
339 335 -333 0
339 -335 333 0
-339 335 333 0
-339 -335 -333 0
-340 139 0
-340 211 0
-340 331 -143 0
-340 -331 143 0
340 -139 331 143 -211 0
340 -139 -331 -143 -211 0
342 139 -331 0
342 -139 331 0
-342 139 331 0
-342 -139 -331 0
341 143 -211 0
341 -143 211 0
-341 143 211 0
-341 -143 -211 0
343 -341 0
-343 341 0
-344 139 0
-344 341 0
344 -139 -341 0
345 139 -341 0
345 -139 341 0
-345 139 341 0
-345 -139 -341 0
-346 347 0
-346 345 0
-346 -139 0
346 -347 139 -345 0
347 -139 345 0
-347 139 345 0
-348 345 0
347 -348 -139 0
-347 -348 139 0
347 348 139 -345 0
-347 348 -139 -345 0
-349 345 0
347 -349 139 0
-347 -349 -139 0
347 349 -139 -345 0
-347 349 139 -345 0
-350 347 0
-350 345 0
350 -347 -345 0
351 347 -345 0
351 -347 345 0
-351 347 345 0
-351 -347 -345 0
-352 148 0
-352 211 0
-352 342 -152 0
-352 -342 152 0
352 -148 342 152 -211 0
352 -148 -342 -152 -211 0
354 148 -342 0
354 -148 342 0
-354 148 342 0
-354 -148 -342 0
353 152 -211 0
353 -152 211 0
-353 152 211 0
-353 -152 -211 0
355 -353 0
-355 353 0
-356 148 0
-356 353 0
356 -148 -353 0
357 148 -353 0
357 -148 353 0
-357 148 353 0
-357 -148 -353 0
-358 359 0
-358 357 0
-358 -148 0
358 -359 148 -357 0
359 -148 357 0
-359 148 357 0
-360 357 0
359 -360 -148 0
-359 -360 148 0
359 360 148 -357 0
-359 360 -148 -357 0
-361 357 0
359 -361 148 0
-359 -361 -148 0
359 361 -148 -357 0
-359 361 148 -357 0
-362 359 0
-362 357 0
362 -359 -357 0
363 359 -357 0
363 -359 357 0
-363 359 357 0
-363 -359 -357 0
-364 157 0
-364 211 0
-364 354 -161 0
-364 -354 161 0
364 -157 354 161 -211 0
364 -157 -354 -161 -211 0
366 157 -354 0
366 -157 354 0
-366 157 354 0
-366 -157 -354 0
365 161 -211 0
365 -161 211 0
-365 161 211 0
-365 -161 -211 0
-367 157 0
-367 365 0
367 -157 -365 0
368 157 -365 0
368 -157 365 0
-368 157 365 0
-368 -157 -365 0
-369 370 0
-369 368 0
-369 -157 0
369 -370 157 -368 0
370 -157 368 0
-370 157 368 0
-371 368 0
370 -371 -157 0
-370 -371 157 0
370 371 157 -368 0
-370 371 -157 -368 0
-372 368 0
370 -372 157 0
-370 -372 -157 0
370 372 -157 -368 0
-370 372 157 -368 0
-373 370 0
-373 368 0
373 -370 -368 0
374 370 -368 0
374 -370 368 0
-374 370 368 0
-374 -370 -368 0
-375 165 0
-375 211 0
-375 366 -169 0
-375 -366 169 0
375 -165 366 169 -211 0
375 -165 -366 -169 -211 0
377 165 -366 0
377 -165 366 0
-377 165 366 0
-377 -165 -366 0
376 169 -211 0
376 -169 211 0
-376 169 211 0
-376 -169 -211 0
-378 165 0
-378 376 0
378 -165 -376 0
379 165 -376 0
379 -165 376 0
-379 165 376 0
-379 -165 -376 0
-380 381 0
-380 379 0
-380 -165 0
380 -381 165 -379 0
381 -165 379 0
-381 165 379 0
-382 379 0
381 -382 -165 0
-381 -382 165 0
381 382 165 -379 0
-381 382 -165 -379 0
-383 379 0
381 -383 165 0
-381 -383 -165 0
381 383 -165 -379 0
-381 383 165 -379 0
-384 381 0
-384 379 0
384 -381 -379 0
385 381 -379 0
385 -381 379 0
-385 381 379 0
-385 -381 -379 0
-386 173 0
-386 211 0
-386 377 -177 0
-386 -377 177 0
386 -173 377 177 -211 0
386 -173 -377 -177 -211 0
388 173 -377 0
388 -173 377 0
-388 173 377 0
-388 -173 -377 0
387 177 -211 0
387 -177 211 0
-387 177 211 0
-387 -177 -211 0
389 -387 0
-389 387 0
-390 173 0
-390 387 0
390 -173 -387 0
391 173 -387 0
391 -173 387 0
-391 173 387 0
-391 -173 -387 0
-392 393 0
-392 391 0
-392 -173 0
392 -393 173 -391 0
393 -173 391 0
-393 173 391 0
-394 391 0
393 -394 -173 0
-393 -394 173 0
393 394 173 -391 0
-393 394 -173 -391 0
-395 391 0
393 -395 173 0
-393 -395 -173 0
393 395 -173 -391 0
-393 395 173 -391 0
-396 393 0
-396 391 0
396 -393 -391 0
397 393 -391 0
397 -393 391 0
-397 393 391 0
-397 -393 -391 0
-398 182 0
-398 211 0
-398 388 -186 0
-398 -388 186 0
398 -182 388 186 -211 0
398 -182 -388 -186 -211 0
400 182 -388 0
400 -182 388 0
-400 182 388 0
-400 -182 -388 0
399 186 -211 0
399 -186 211 0
-399 186 211 0
-399 -186 -211 0
-401 182 0
-401 399 0
401 -182 -399 0
402 182 -399 0
402 -182 399 0
-402 182 399 0
-402 -182 -399 0
-403 404 0
-403 402 0
-403 -182 0
403 -404 182 -402 0
404 -182 402 0
-404 182 402 0
-405 402 0
404 -405 -182 0
-404 -405 182 0
404 405 182 -402 0
-404 405 -182 -402 0
-406 402 0
404 -406 182 0
-404 -406 -182 0
404 406 -182 -402 0
-404 406 182 -402 0
-407 404 0
-407 402 0
407 -404 -402 0
408 404 -402 0
408 -404 402 0
-408 404 402 0
-408 -404 -402 0
-409 190 0
-409 211 0
-409 400 -194 0
-409 -400 194 0
409 -190 400 194 -211 0
409 -190 -400 -194 -211 0
411 190 -400 0
411 -190 400 0
-411 190 400 0
-411 -190 -400 0
410 194 -211 0
410 -194 211 0
-410 194 211 0
-410 -194 -211 0
-412 190 0
-412 410 0
412 -190 -410 0
413 190 -410 0
413 -190 410 0
-413 190 410 0
-413 -190 -410 0
-414 415 0
-414 413 0
-414 -190 0
414 -415 190 -413 0
415 -190 413 0
-415 190 413 0
-416 413 0
415 -416 -190 0
-415 -416 190 0
415 416 190 -413 0
-415 416 -190 -413 0
-417 413 0
415 -417 190 0
-415 -417 -190 0
415 417 -190 -413 0
-415 417 190 -413 0
-418 415 0
-418 413 0
418 -415 -413 0
419 415 -413 0
419 -415 413 0
-419 415 413 0
-419 -415 -413 0
-420 198 0
-420 211 0
-420 411 -202 0
-420 -411 202 0
420 -198 411 202 -211 0
420 -198 -411 -202 -211 0
422 198 -411 0
422 -198 411 0
-422 198 411 0
-422 -198 -411 0
421 202 -211 0
421 -202 211 0
-421 202 211 0
-421 -202 -211 0
-423 198 0
-423 421 0
423 -198 -421 0
424 198 -421 0
424 -198 421 0
-424 198 421 0
-424 -198 -421 0
-425 426 0
-425 424 0
-425 -198 0
425 -426 198 -424 0
426 -198 424 0
-426 198 424 0
-427 424 0
426 -427 -198 0
-426 -427 198 0
426 427 198 -424 0
-426 427 -198 -424 0
-428 424 0
426 -428 198 0
-426 -428 -198 0
426 428 -198 -424 0
-426 428 198 -424 0
-429 426 0
-429 424 0
429 -426 -424 0
430 426 -424 0
430 -426 424 0
-430 426 424 0
-430 -426 -424 0
-219 0
-231 0
-235 0
-242 0
-246 0
-254 0
-258 0
-265 0
-269 0
-277 0
-281 0
-289 0
-293 0
-300 0
-304 0
-312 0
-316 0
-324 0
-328 0
-335 0
-339 0
-347 0
-351 0
-359 0
-363 0
-370 0
-374 0
-381 0
-385 0
-393 0
-397 0
-404 0
-408 0
-415 0
-419 0
-426 0
-430 0
-422 0
-211 0
